(set-logic ALL)
(declare-fun seed0_value () String)
(declare-fun seed0_key () String)
(assert (and (or (and (and (and (and (and (and (and (and (and (and (and (and (and (and (and (and (and (and (and (and (and (and (and (and (and (and (and (and (and (and (and (and (and (and (and (and (and (and (and (and (and (and (and (and (and (and (and (and (and (and (and (and (and (and (and (and (not (= (ite (= (str.at (str.substr (str.substr seed0_value 1 (- (str.len seed0_value) 1)) 1 (- (str.len (str.substr seed0_value 1 (- (str.len seed0_value) 1))) 1)) 0) "\u{d}") 1 0) 0)) (= (ite (= (str.at (str.substr (str.substr seed0_value 1 (- (str.len seed0_value) 1)) 1 (- (str.len (str.substr seed0_value 1 (- (str.len seed0_value) 1))) 1)) 0) "\u{a}") 1 0) 0)) (= (ite (= (str.at (str.substr (str.substr seed0_value 1 (- (str.len seed0_value) 1)) 1 (- (str.len (str.substr seed0_value 1 (- (str.len seed0_value) 1))) 1)) 0) "\u{9}") 1 0) 0)) (= (ite (= (str.at (str.substr (str.substr seed0_value 1 (- (str.len seed0_value) 1)) 1 (- (str.len (str.substr seed0_value 1 (- (str.len seed0_value) 1))) 1)) 0) " ") 1 0) 0)) (= (ite (= (str.len (str.substr (str.substr seed0_value 1 (- (str.len seed0_value) 1)) 1 (- (str.len (str.substr seed0_value 1 (- (str.len seed0_value) 1))) 1))) 0) 1 0) 0)) (not (= (ite (= (str.at (str.substr seed0_value 1 (- (str.len seed0_value) 1)) 0) "\u{b}") 1 0) 0))) (= (ite (= (str.at (str.substr seed0_value 1 (- (str.len seed0_value) 1)) 0) "\u{d}") 1 0) 0)) (= (ite (= (str.at (str.substr seed0_value 1 (- (str.len seed0_value) 1)) 0) "\u{a}") 1 0) 0)) (= (ite (= (str.at (str.substr seed0_value 1 (- (str.len seed0_value) 1)) 0) "\u{9}") 1 0) 0)) (= (ite (= (str.at (str.substr seed0_value 1 (- (str.len seed0_value) 1)) 0) " ") 1 0) 0)) (= (ite (= (str.len (str.substr seed0_value 1 (- (str.len seed0_value) 1))) 0) 1 0) 0)) (not (= (ite (= (str.at seed0_value 0) "\u{9}") 1 0) 0))) (= (ite (= (str.at seed0_value 0) " ") 1 0) 0)) (= (ite (= (str.len seed0_value) 0) 1 0) 0)) (not (= (ite (= seed0_key "www-authenticate") 1 0) 0))) (not (= (ite (= seed0_key "www-authenticate") 1 0) 0))) (>= 1 0)) (>= (- (str.len seed0_value) 1) 0)) (>= 1 0)) (>= (- (str.len seed0_value) 1) 0)) (>= 1 0)) (>= (- (str.len (str.substr seed0_value 1 (- (str.len seed0_value) 1))) 1) 0)) (>= 1 0)) (>= (- (str.len seed0_value) 1) 0)) (>= 1 0)) (>= (- (str.len seed0_value) 1) 0)) (>= 1 0)) (>= (- (str.len (str.substr seed0_value 1 (- (str.len seed0_value) 1))) 1) 0)) (>= 1 0)) (>= (- (str.len seed0_value) 1) 0)) (>= 1 0)) (>= (- (str.len seed0_value) 1) 0)) (>= 1 0)) (>= (- (str.len (str.substr seed0_value 1 (- (str.len seed0_value) 1))) 1) 0)) (>= 1 0)) (>= (- (str.len seed0_value) 1) 0)) (>= 1 0)) (>= (- (str.len seed0_value) 1) 0)) (>= 1 0)) (>= (- (str.len (str.substr seed0_value 1 (- (str.len seed0_value) 1))) 1) 0)) (>= 1 0)) (>= (- (str.len seed0_value) 1) 0)) (>= 1 0)) (>= (- (str.len seed0_value) 1) 0)) (>= 1 0)) (>= (- (str.len (str.substr seed0_value 1 (- (str.len seed0_value) 1))) 1) 0)) (>= 1 0)) (>= (- (str.len seed0_value) 1) 0)) (>= 1 0)) (>= (- (str.len seed0_value) 1) 0)) (>= 1 0)) (>= (- (str.len seed0_value) 1) 0)) (>= 1 0)) (>= (- (str.len seed0_value) 1) 0)) (>= 1 0)) (>= (- (str.len seed0_value) 1) 0)) (>= 1 0)) (or (str.contains (str.++ seed0_value "SFR8mb") (str.++ seed0_value "XtSTkQA23")) (str.contains (str.++ seed0_key "cL0RICmM") (str.++ seed0_key "4CRYemDH3kz")))) (or (>= (- (str.len seed0_value) 1) 0) (str.contains (str.++ seed0_value "tebWlK9EvP8uAQIL") (str.++ seed0_key "Nwhz7xSRZLQsDPut8k")))))
(check-sat)
(exit)